120
150
46
46
58
47
54
51
53
46
53
48
49
58
48
56
54
51
46
44
52
48
55
52
47
40
47
58
57
53
40
52
55
54
54
43
55
46
40
49
53
57
52
45
53
47
52
48
53
49
42
48
50
58
57
45
49
54
42
55
54
48
48
47
60
57
40
50
57
41
49
49
57
47
43
46
57
60
46
48
60
48
54
48
49
44
58
55
48
55
50
42
49
44
58
53
49
50
47
45
52
48
52
48
56
54
44
43
47
49
54
56
54
46
42
50
45
43
50
60
58
55
